Cost: 1800
0-26-1-9-33-27-3-4-29-30-31-5-6-8-11-10-47-25-0
0-42-28-2-41-43-22-40-0
0-20-37-38-18-17-12-32-7-23-34-13-46-36-14-15-16-45-39-19-44-21-0
Cost: 1800
0-26-42-28-2-41-43-22-40-0
0-1-9-33-27-3-4-29-30-31-5-6-8-11-10-47-25-0
0-20-38-37-18-17-12-32-7-23-34-13-46-36-14-15-16-45-39-19-44-21-0
Cost: 1800
0-26-1-9-33-27-3-4-29-30-31-5-6-8-11-10-47-25-0
0-42-28-2-41-43-22-40-0
0-20-37-38-18-17-12-32-7-23-34-13-46-36-14-15-16-45-39-19-44-21-0
Cost: 1800
0-1-9-33-27-3-4-29-30-31-5-6-8-11-10-47-25-0
0-26-42-28-2-41-43-22-40-0
0-20-37-38-18-17-12-32-7-23-34-13-46-36-14-15-16-45-39-19-44-21-0
Cost: 1800
0-20-37-38-18-17-12-32-7-23-34-13-46-36-14-15-16-45-39-19-44-21-0
0-26-42-28-2-41-43-22-40-0
0-1-9-33-27-3-4-29-30-31-5-6-8-11-10-47-25-0
Cost: 1800
0-20-37-38-18-17-12-32-7-23-34-13-46-36-14-15-16-45-39-19-44-21-0
0-42-28-2-41-43-22-40-0
0-26-1-9-33-27-3-4-29-30-31-5-6-8-11-10-47-25-0
Cost: 1800
0-26-1-9-33-27-3-4-29-30-31-5-6-8-11-10-47-25-0
0-42-28-2-41-43-22-40-0
0-20-37-38-18-17-12-32-7-23-34-13-46-36-14-15-16-45-39-19-44-21-0
Cost: 1800
0-1-9-33-27-3-4-29-30-31-5-6-8-11-10-47-25-0
0-26-42-28-2-41-43-22-40-0
0-20-37-38-18-17-12-32-7-23-34-13-46-36-14-15-16-45-39-19-44-21-0
Cost: 1800
0-1-9-33-27-3-4-29-30-31-5-6-8-11-10-47-25-0
0-26-42-28-2-41-43-22-40-0
0-20-37-38-18-17-12-32-7-23-34-13-46-36-14-15-16-45-39-19-44-21-0
Cost: 1800
0-1-9-33-27-3-4-29-30-31-5-6-8-11-10-47-25-0
0-26-42-28-2-41-43-22-40-0
0-20-37-38-18-17-12-32-7-23-34-13-46-36-14-15-16-45-39-19-44-21-0
Cost: 1800
0-1-9-33-27-3-4-29-30-31-5-6-8-11-10-47-25-0
0-26-42-28-2-41-43-22-40-0
0-20-37-38-18-17-12-32-7-23-34-13-46-36-14-15-16-45-39-19-44-21-0
Cost: 1800
0-26-1-9-33-27-3-4-29-30-5-31-6-8-11-10-47-25-0
0-42-28-2-41-43-22-40-0
0-20-37-38-18-17-12-32-7-23-34-13-46-36-14-15-16-45-39-19-44-21-0
Cost: 1800
0-26-1-9-33-27-3-4-29-30-5-31-6-8-11-10-47-25-0
0-42-28-2-41-43-22-40-0
0-20-37-38-18-17-12-32-7-23-34-13-46-36-14-15-16-45-39-19-44-21-0
Cost: 1800
0-26-1-9-33-27-3-4-29-30-5-31-6-8-11-10-47-25-0
0-42-28-2-41-43-22-40-0
0-20-37-38-18-17-12-32-7-23-34-13-46-36-14-15-16-45-39-19-44-21-0
Cost: 1800
0-26-1-9-33-27-3-4-29-30-5-31-6-8-11-10-47-25-0
0-42-28-2-41-43-22-40-0
0-20-37-38-18-17-12-32-7-23-34-13-46-36-14-15-16-45-39-19-44-21-0
Cost: 1800
0-26-1-9-33-27-3-4-29-30-5-31-6-8-11-10-47-25-0
0-42-28-2-41-43-22-40-0
0-20-37-38-18-17-12-32-7-23-34-13-46-36-14-15-16-45-39-19-44-21-0
Cost: 1800
0-26-1-9-33-27-3-4-29-30-5-31-6-8-11-10-47-25-0
0-42-28-2-41-43-22-40-0
0-20-37-38-18-17-12-32-7-23-34-13-46-36-14-15-16-45-39-19-44-21-0
Cost: 1800
0-26-1-9-33-27-3-4-29-30-31-5-6-8-11-10-47-25-0
0-20-37-38-18-17-12-32-7-23-34-13-46-36-14-15-16-45-39-19-44-21-0
0-42-28-2-41-43-22-40-0
Cost: 1800
0-26-1-9-33-27-3-4-29-30-5-31-6-8-11-10-47-25-0
0-42-28-2-41-43-22-40-0
0-20-37-38-18-17-12-32-7-23-34-13-46-36-14-15-16-45-39-19-44-21-0
Cost: 1800
0-26-1-9-33-27-3-4-29-30-5-31-6-8-11-10-47-25-0
0-42-28-2-41-43-22-40-0
0-20-37-38-18-17-12-32-7-23-34-13-46-36-14-15-16-45-39-19-44-21-0
Cost: 1800
0-26-1-9-33-27-3-4-29-30-5-31-6-8-11-10-47-25-0
0-42-28-2-41-43-22-40-0
0-20-37-38-18-17-12-32-7-23-34-13-46-36-14-15-16-45-39-19-44-21-0
Cost: 1800
0-26-1-9-33-27-3-4-29-30-5-31-6-8-11-10-47-25-0
0-42-28-2-41-43-22-40-0
0-20-37-38-18-17-12-32-7-23-34-13-46-36-14-15-16-45-39-19-44-21-0
Cost: 1800
0-26-1-9-33-27-3-4-29-30-5-31-6-8-11-10-47-25-0
0-42-28-2-41-43-22-40-0
0-20-37-38-18-17-12-32-7-23-34-13-46-36-14-15-16-45-39-19-44-21-0
Cost: 1800
0-26-1-9-33-27-3-4-29-30-5-31-6-8-11-10-47-25-0
0-42-28-2-41-43-22-40-0
0-20-37-38-18-17-12-32-7-23-34-13-46-36-14-15-16-45-39-19-44-21-0
Cost: 1800
0-26-1-9-33-27-3-4-29-30-5-31-6-8-11-10-47-25-0
0-42-28-2-41-43-22-40-0
0-20-37-38-18-17-12-32-7-23-34-13-46-36-14-15-16-45-39-19-44-21-0
Cost: 1800
0-26-1-9-33-27-3-4-29-30-31-5-6-8-11-10-47-25-0
0-42-28-2-41-43-22-40-0
0-20-37-38-18-17-12-32-7-23-34-13-46-36-14-15-16-45-39-19-44-21-0
Cost: 1800
0-26-1-9-33-27-3-4-29-30-5-31-6-8-11-10-47-25-0
0-42-28-2-41-43-22-40-0
0-20-37-38-18-17-12-32-7-23-34-13-46-36-14-15-16-45-39-19-44-21-0
Cost: 1800
0-26-1-9-33-27-3-4-29-30-5-31-6-8-11-10-47-25-0
0-42-28-2-41-43-22-40-0
0-20-37-38-18-17-12-32-7-23-34-13-46-36-14-15-16-45-39-19-44-21-0
Cost: 1800
0-26-1-9-33-27-3-4-29-30-5-31-6-8-11-10-47-25-0
0-42-28-2-41-43-22-40-0
0-20-37-38-18-17-12-32-7-23-34-13-46-36-14-15-16-45-39-19-44-21-0
Cost: 1800
0-26-1-9-33-27-3-4-29-30-5-31-6-8-11-10-47-25-0
0-42-28-2-41-43-22-40-0
0-20-37-38-18-17-12-32-7-23-34-13-46-36-14-15-16-45-39-19-44-21-0
Cost: 1800
0-42-28-2-41-43-22-40-0
0-20-37-38-18-17-12-32-7-23-34-13-46-36-14-15-16-45-39-19-44-21-0
0-26-1-9-33-27-3-4-29-30-5-31-6-8-11-10-47-25-0
Cost: 1807
0-26-1-9-33-27-3-4-29-30-31-5-6-8-11-10-47-25-0
0-42-28-2-41-43-22-40-0
0-20-38-37-18-17-12-32-7-23-34-13-46-36-14-15-16-45-19-44-39-21-0
Cost: 1800
0-42-28-2-41-43-22-40-0
0-20-38-37-18-17-12-32-7-23-34-13-46-36-14-15-16-45-39-19-44-21-0
0-26-1-9-33-27-3-4-29-30-31-5-6-8-11-10-47-25-0
Cost: 1800
0-20-38-37-18-17-12-32-7-23-34-13-46-36-14-15-16-45-39-19-44-21-0
0-42-28-2-41-43-22-40-0
0-26-1-9-33-27-3-4-29-30-31-5-6-8-11-10-47-25-0
Cost: 1800
0-26-42-28-2-41-43-22-40-0
0-1-9-33-27-3-4-29-30-31-5-6-8-11-10-47-25-0
0-20-37-38-18-17-12-32-7-23-34-13-46-36-14-15-16-45-39-19-44-21-0
